120
150
89
78
29
61
43
44
38
68
52
52
90
60
46
25
20
36
49
58
25
78
72
25
60
44
46
89
61
80
29
42
53
94
41
42
50
58
20
29
74
100
72
100
78
60
90
55
55
100
83
88
29
37
50
53
42
55
74
41
50
50
46
58
92
40
38
44
58
62
40
78
90
89
72
61
34
48
48
35
25
53
97
90
62
33
97
60
97
72
78
61
89
55
50
73
77
25
39
38
78
73
32
39
89
34
44
38
68
36
64
70
80
50
50
100
72
78
89
61
66
78
